
(set-option :produce-models true)
(set-option :inline-size-limit 10000)

(declare-const var0 String)

(push 1)
(assert (str.in.re var0 (re.* (re.range "\x01" "\xff"))))
(assert (str.in.re var0 (re.++ (re.++ re.begin-anchor (re.++ ((_ re.capture 1) (re.union (re.++ ((_ re.capture 2) (re.union (re.union (re.union ((_ re.capture 3) (re.++ ((_ re.capture 4) (re.union ((_ re.capture 5) (re.++ (re.opt (re.range "0" "1")) (re.range "0" "9"))) ((_ re.capture 6) (re.++ (str.to.re "2") (re.range "0" "8"))))) (re.++ (str.to.re "/") ((_ re.capture 7) (re.union ((_ re.capture 8) (re.++ (re.opt (str.to.re "0")) (re.range "0" "9"))) ((_ re.capture 9) (re.++ (str.to.re "1") (re.range "0" "2")))))))) ((_ re.capture 10) (re.++ (str.to.re "2") (re.++ (str.to.re "9") (re.++ (str.to.re "/") ((_ re.capture 11) (re.union ((_ re.capture 12) (re.++ (re.opt (str.to.re "0")) (re.union (str.to.re "1") (re.union (str.to.re ",") (re.range "3" "9"))))) ((_ re.capture 13) (re.++ (str.to.re "1") (re.range "0" "2")))))))))) ((_ re.capture 14) (re.++ (str.to.re "3") (re.++ (str.to.re "0") (re.++ (str.to.re "/") ((_ re.capture 15) (re.union ((_ re.capture 16) (re.++ (re.opt (str.to.re "0")) (re.union (str.to.re "1") (re.union (str.to.re ",") (re.range "3" "9"))))) ((_ re.capture 17) (re.++ (str.to.re "1") (re.range "0" "2")))))))))) ((_ re.capture 18) (re.++ (str.to.re "3") (re.++ (str.to.re "1") (re.++ (str.to.re "/") ((_ re.capture 19) (re.union ((_ re.capture 20) (re.++ (re.opt (str.to.re "0")) (re.union (str.to.re "1") (re.union (str.to.re "3") (re.union (str.to.re "5") (re.union (str.to.re "7") (str.to.re "8"))))))) ((_ re.capture 21) (re.++ (str.to.re "1") (re.range "0" "2"))))))))))) (re.++ (str.to.re "/") ((_ re.capture 22) (re.union ((_ re.capture 23) (re.++ (str.to.re "1") (re.++ (str.to.re "9") ((_ re.loop 0 2) (re.range "0" "9"))))) ((_ re.capture 24) (re.++ (re.range "2" "9") ((_ re.loop 0 3) (re.range "0" "9")))))))) ((_ re.capture 25) (re.++ (str.to.re "2") (re.++ (str.to.re "9") (re.++ (str.to.re "/") (re.++ (re.opt (str.to.re "0")) (re.++ (str.to.re "2") (re.++ (str.to.re "/") ((_ re.capture 26) (re.union ((_ re.capture 27) (re.++ ((_ re.capture 28) (re.union ((_ re.capture 29) (re.++ (re.union (str.to.re "2") (re.union (str.to.re "4") (re.union (str.to.re "6") (str.to.re "8")))) (re.union (str.to.re "0") (re.union (str.to.re "4") (str.to.re "8"))))) ((_ re.capture 30) (re.++ (re.union (str.to.re "3") (re.union (str.to.re "5") (re.union (str.to.re "7") (str.to.re "9")))) (re.union (str.to.re "2") (str.to.re "6")))))) (re.++ (str.to.re "0") (str.to.re "0")))) ((_ re.capture 31) (re.++ ((_ re.capture 32) (re.union ((_ re.capture 33) (re.++ (str.to.re "1") (str.to.re "9"))) ((_ re.capture 34) (re.++ (re.range "2" "9") (re.range "0" "9"))))) ((_ re.capture 35) (re.union (re.union ((_ re.capture 36) (re.++ (re.union (str.to.re "2") (re.union (str.to.re "4") (re.union (str.to.re "6") (str.to.re "8")))) (str.to.re "0"))) ((_ re.capture 37) (re.++ (re.union (str.to.re "0") (re.union (str.to.re "2") (re.union (str.to.re "4") (re.union (str.to.re "6") (str.to.re "8"))))) (re.union (str.to.re "4") (str.to.re "8"))))) ((_ re.capture 38) (re.++ (re.union (str.to.re "1") (re.union (str.to.re "3") (re.union (str.to.re "5") (re.union (str.to.re "7") (str.to.re "9"))))) (re.union (str.to.re "2") (str.to.re "6"))))))))))))))))))) (re.++ (re.union (str.to.re " ") (re.union (str.to.re "\u{0b}") (re.union (str.to.re "\u{0a}") (re.union (str.to.re "\u{0d}") (re.union (str.to.re "\u{09}") (str.to.re "\u{0c}")))))) (re.++ ((_ re.capture 39) (re.union ((_ re.capture 40) (re.++ (re.opt (re.union (str.to.re "0") (str.to.re "1"))) (re.range "0" "9"))) ((_ re.capture 41) (re.++ (str.to.re "2") (re.range "0" "3"))))) ((_ re.loop 0 2) ((_ re.capture 42) (re.++ (str.to.re ":") (re.++ (re.opt (re.range "0" "5")) (re.range "0" "9"))))))))) re.end-anchor)))	; match!==null
(assert (not (str.in.re ((_ str.extract 1) var0 (re.++ (re.++ re.begin-anchor (re.++ ((_ re.capture 1) (re.union (re.++ ((_ re.capture 2) (re.union (re.union (re.union ((_ re.capture 3) (re.++ ((_ re.capture 4) (re.union ((_ re.capture 5) (re.++ (re.opt (re.range "0" "1")) (re.range "0" "9"))) ((_ re.capture 6) (re.++ (str.to.re "2") (re.range "0" "8"))))) (re.++ (str.to.re "/") ((_ re.capture 7) (re.union ((_ re.capture 8) (re.++ (re.opt (str.to.re "0")) (re.range "0" "9"))) ((_ re.capture 9) (re.++ (str.to.re "1") (re.range "0" "2")))))))) ((_ re.capture 10) (re.++ (str.to.re "2") (re.++ (str.to.re "9") (re.++ (str.to.re "/") ((_ re.capture 11) (re.union ((_ re.capture 12) (re.++ (re.opt (str.to.re "0")) (re.union (str.to.re "1") (re.union (str.to.re ",") (re.range "3" "9"))))) ((_ re.capture 13) (re.++ (str.to.re "1") (re.range "0" "2")))))))))) ((_ re.capture 14) (re.++ (str.to.re "3") (re.++ (str.to.re "0") (re.++ (str.to.re "/") ((_ re.capture 15) (re.union ((_ re.capture 16) (re.++ (re.opt (str.to.re "0")) (re.union (str.to.re "1") (re.union (str.to.re ",") (re.range "3" "9"))))) ((_ re.capture 17) (re.++ (str.to.re "1") (re.range "0" "2")))))))))) ((_ re.capture 18) (re.++ (str.to.re "3") (re.++ (str.to.re "1") (re.++ (str.to.re "/") ((_ re.capture 19) (re.union ((_ re.capture 20) (re.++ (re.opt (str.to.re "0")) (re.union (str.to.re "1") (re.union (str.to.re "3") (re.union (str.to.re "5") (re.union (str.to.re "7") (str.to.re "8"))))))) ((_ re.capture 21) (re.++ (str.to.re "1") (re.range "0" "2"))))))))))) (re.++ (str.to.re "/") ((_ re.capture 22) (re.union ((_ re.capture 23) (re.++ (str.to.re "1") (re.++ (str.to.re "9") ((_ re.loop 0 2) (re.range "0" "9"))))) ((_ re.capture 24) (re.++ (re.range "2" "9") ((_ re.loop 0 3) (re.range "0" "9")))))))) ((_ re.capture 25) (re.++ (str.to.re "2") (re.++ (str.to.re "9") (re.++ (str.to.re "/") (re.++ (re.opt (str.to.re "0")) (re.++ (str.to.re "2") (re.++ (str.to.re "/") ((_ re.capture 26) (re.union ((_ re.capture 27) (re.++ ((_ re.capture 28) (re.union ((_ re.capture 29) (re.++ (re.union (str.to.re "2") (re.union (str.to.re "4") (re.union (str.to.re "6") (str.to.re "8")))) (re.union (str.to.re "0") (re.union (str.to.re "4") (str.to.re "8"))))) ((_ re.capture 30) (re.++ (re.union (str.to.re "3") (re.union (str.to.re "5") (re.union (str.to.re "7") (str.to.re "9")))) (re.union (str.to.re "2") (str.to.re "6")))))) (re.++ (str.to.re "0") (str.to.re "0")))) ((_ re.capture 31) (re.++ ((_ re.capture 32) (re.union ((_ re.capture 33) (re.++ (str.to.re "1") (str.to.re "9"))) ((_ re.capture 34) (re.++ (re.range "2" "9") (re.range "0" "9"))))) ((_ re.capture 35) (re.union (re.union ((_ re.capture 36) (re.++ (re.union (str.to.re "2") (re.union (str.to.re "4") (re.union (str.to.re "6") (str.to.re "8")))) (str.to.re "0"))) ((_ re.capture 37) (re.++ (re.union (str.to.re "0") (re.union (str.to.re "2") (re.union (str.to.re "4") (re.union (str.to.re "6") (str.to.re "8"))))) (re.union (str.to.re "4") (str.to.re "8"))))) ((_ re.capture 38) (re.++ (re.union (str.to.re "1") (re.union (str.to.re "3") (re.union (str.to.re "5") (re.union (str.to.re "7") (str.to.re "9"))))) (re.union (str.to.re "2") (str.to.re "6"))))))))))))))))))) (re.++ (re.union (str.to.re " ") (re.union (str.to.re "\u{0b}") (re.union (str.to.re "\u{0a}") (re.union (str.to.re "\u{0d}") (re.union (str.to.re "\u{09}") (str.to.re "\u{0c}")))))) (re.++ ((_ re.capture 39) (re.union ((_ re.capture 40) (re.++ (re.opt (re.union (str.to.re "0") (str.to.re "1"))) (re.range "0" "9"))) ((_ re.capture 41) (re.++ (str.to.re "2") (re.range "0" "3"))))) ((_ re.loop 0 2) ((_ re.capture 42) (re.++ (str.to.re ":") (re.++ (re.opt (re.range "0" "5")) (re.range "0" "9"))))))))) re.end-anchor)) (str.to.re "\x00"))))
;match[1]!==null
(assert (str.in.re ((_ str.extract 1) var0 (re.++ (re.++ re.begin-anchor (re.++ ((_ re.capture 1) (re.union (re.++ ((_ re.capture 2) (re.union (re.union (re.union ((_ re.capture 3) (re.++ ((_ re.capture 4) (re.union ((_ re.capture 5) (re.++ (re.opt (re.range "0" "1")) (re.range "0" "9"))) ((_ re.capture 6) (re.++ (str.to.re "2") (re.range "0" "8"))))) (re.++ (str.to.re "/") ((_ re.capture 7) (re.union ((_ re.capture 8) (re.++ (re.opt (str.to.re "0")) (re.range "0" "9"))) ((_ re.capture 9) (re.++ (str.to.re "1") (re.range "0" "2")))))))) ((_ re.capture 10) (re.++ (str.to.re "2") (re.++ (str.to.re "9") (re.++ (str.to.re "/") ((_ re.capture 11) (re.union ((_ re.capture 12) (re.++ (re.opt (str.to.re "0")) (re.union (str.to.re "1") (re.union (str.to.re ",") (re.range "3" "9"))))) ((_ re.capture 13) (re.++ (str.to.re "1") (re.range "0" "2")))))))))) ((_ re.capture 14) (re.++ (str.to.re "3") (re.++ (str.to.re "0") (re.++ (str.to.re "/") ((_ re.capture 15) (re.union ((_ re.capture 16) (re.++ (re.opt (str.to.re "0")) (re.union (str.to.re "1") (re.union (str.to.re ",") (re.range "3" "9"))))) ((_ re.capture 17) (re.++ (str.to.re "1") (re.range "0" "2")))))))))) ((_ re.capture 18) (re.++ (str.to.re "3") (re.++ (str.to.re "1") (re.++ (str.to.re "/") ((_ re.capture 19) (re.union ((_ re.capture 20) (re.++ (re.opt (str.to.re "0")) (re.union (str.to.re "1") (re.union (str.to.re "3") (re.union (str.to.re "5") (re.union (str.to.re "7") (str.to.re "8"))))))) ((_ re.capture 21) (re.++ (str.to.re "1") (re.range "0" "2"))))))))))) (re.++ (str.to.re "/") ((_ re.capture 22) (re.union ((_ re.capture 23) (re.++ (str.to.re "1") (re.++ (str.to.re "9") ((_ re.loop 0 2) (re.range "0" "9"))))) ((_ re.capture 24) (re.++ (re.range "2" "9") ((_ re.loop 0 3) (re.range "0" "9")))))))) ((_ re.capture 25) (re.++ (str.to.re "2") (re.++ (str.to.re "9") (re.++ (str.to.re "/") (re.++ (re.opt (str.to.re "0")) (re.++ (str.to.re "2") (re.++ (str.to.re "/") ((_ re.capture 26) (re.union ((_ re.capture 27) (re.++ ((_ re.capture 28) (re.union ((_ re.capture 29) (re.++ (re.union (str.to.re "2") (re.union (str.to.re "4") (re.union (str.to.re "6") (str.to.re "8")))) (re.union (str.to.re "0") (re.union (str.to.re "4") (str.to.re "8"))))) ((_ re.capture 30) (re.++ (re.union (str.to.re "3") (re.union (str.to.re "5") (re.union (str.to.re "7") (str.to.re "9")))) (re.union (str.to.re "2") (str.to.re "6")))))) (re.++ (str.to.re "0") (str.to.re "0")))) ((_ re.capture 31) (re.++ ((_ re.capture 32) (re.union ((_ re.capture 33) (re.++ (str.to.re "1") (str.to.re "9"))) ((_ re.capture 34) (re.++ (re.range "2" "9") (re.range "0" "9"))))) ((_ re.capture 35) (re.union (re.union ((_ re.capture 36) (re.++ (re.union (str.to.re "2") (re.union (str.to.re "4") (re.union (str.to.re "6") (str.to.re "8")))) (str.to.re "0"))) ((_ re.capture 37) (re.++ (re.union (str.to.re "0") (re.union (str.to.re "2") (re.union (str.to.re "4") (re.union (str.to.re "6") (str.to.re "8"))))) (re.union (str.to.re "4") (str.to.re "8"))))) ((_ re.capture 38) (re.++ (re.union (str.to.re "1") (re.union (str.to.re "3") (re.union (str.to.re "5") (re.union (str.to.re "7") (str.to.re "9"))))) (re.union (str.to.re "2") (str.to.re "6"))))))))))))))))))) (re.++ (re.union (str.to.re " ") (re.union (str.to.re "\u{0b}") (re.union (str.to.re "\u{0a}") (re.union (str.to.re "\u{0d}") (re.union (str.to.re "\u{09}") (str.to.re "\u{0c}")))))) (re.++ ((_ re.capture 39) (re.union ((_ re.capture 40) (re.++ (re.opt (re.union (str.to.re "0") (str.to.re "1"))) (re.range "0" "9"))) ((_ re.capture 41) (re.++ (str.to.re "2") (re.range "0" "3"))))) ((_ re.loop 0 2) ((_ re.capture 42) (re.++ (str.to.re ":") (re.++ (re.opt (re.range "0" "5")) (re.range "0" "9"))))))))) re.end-anchor)) (re.++ re.all(re.+ (re.range "a" "z")) re.all) ))
;/[a-z]+/.test(match[1]) == true
(check-sat)
(get-model)
(pop 1)
(push 1)
(assert (str.in.re var0 (re.* (re.range "\x01" "\xff"))))
(assert (str.in.re var0 (re.++ (re.++ re.begin-anchor (re.++ ((_ re.capture 1) (re.union (re.++ ((_ re.capture 2) (re.union (re.union (re.union ((_ re.capture 3) (re.++ ((_ re.capture 4) (re.union ((_ re.capture 5) (re.++ (re.opt (re.range "0" "1")) (re.range "0" "9"))) ((_ re.capture 6) (re.++ (str.to.re "2") (re.range "0" "8"))))) (re.++ (str.to.re "/") ((_ re.capture 7) (re.union ((_ re.capture 8) (re.++ (re.opt (str.to.re "0")) (re.range "0" "9"))) ((_ re.capture 9) (re.++ (str.to.re "1") (re.range "0" "2")))))))) ((_ re.capture 10) (re.++ (str.to.re "2") (re.++ (str.to.re "9") (re.++ (str.to.re "/") ((_ re.capture 11) (re.union ((_ re.capture 12) (re.++ (re.opt (str.to.re "0")) (re.union (str.to.re "1") (re.union (str.to.re ",") (re.range "3" "9"))))) ((_ re.capture 13) (re.++ (str.to.re "1") (re.range "0" "2")))))))))) ((_ re.capture 14) (re.++ (str.to.re "3") (re.++ (str.to.re "0") (re.++ (str.to.re "/") ((_ re.capture 15) (re.union ((_ re.capture 16) (re.++ (re.opt (str.to.re "0")) (re.union (str.to.re "1") (re.union (str.to.re ",") (re.range "3" "9"))))) ((_ re.capture 17) (re.++ (str.to.re "1") (re.range "0" "2")))))))))) ((_ re.capture 18) (re.++ (str.to.re "3") (re.++ (str.to.re "1") (re.++ (str.to.re "/") ((_ re.capture 19) (re.union ((_ re.capture 20) (re.++ (re.opt (str.to.re "0")) (re.union (str.to.re "1") (re.union (str.to.re "3") (re.union (str.to.re "5") (re.union (str.to.re "7") (str.to.re "8"))))))) ((_ re.capture 21) (re.++ (str.to.re "1") (re.range "0" "2"))))))))))) (re.++ (str.to.re "/") ((_ re.capture 22) (re.union ((_ re.capture 23) (re.++ (str.to.re "1") (re.++ (str.to.re "9") ((_ re.loop 0 2) (re.range "0" "9"))))) ((_ re.capture 24) (re.++ (re.range "2" "9") ((_ re.loop 0 3) (re.range "0" "9")))))))) ((_ re.capture 25) (re.++ (str.to.re "2") (re.++ (str.to.re "9") (re.++ (str.to.re "/") (re.++ (re.opt (str.to.re "0")) (re.++ (str.to.re "2") (re.++ (str.to.re "/") ((_ re.capture 26) (re.union ((_ re.capture 27) (re.++ ((_ re.capture 28) (re.union ((_ re.capture 29) (re.++ (re.union (str.to.re "2") (re.union (str.to.re "4") (re.union (str.to.re "6") (str.to.re "8")))) (re.union (str.to.re "0") (re.union (str.to.re "4") (str.to.re "8"))))) ((_ re.capture 30) (re.++ (re.union (str.to.re "3") (re.union (str.to.re "5") (re.union (str.to.re "7") (str.to.re "9")))) (re.union (str.to.re "2") (str.to.re "6")))))) (re.++ (str.to.re "0") (str.to.re "0")))) ((_ re.capture 31) (re.++ ((_ re.capture 32) (re.union ((_ re.capture 33) (re.++ (str.to.re "1") (str.to.re "9"))) ((_ re.capture 34) (re.++ (re.range "2" "9") (re.range "0" "9"))))) ((_ re.capture 35) (re.union (re.union ((_ re.capture 36) (re.++ (re.union (str.to.re "2") (re.union (str.to.re "4") (re.union (str.to.re "6") (str.to.re "8")))) (str.to.re "0"))) ((_ re.capture 37) (re.++ (re.union (str.to.re "0") (re.union (str.to.re "2") (re.union (str.to.re "4") (re.union (str.to.re "6") (str.to.re "8"))))) (re.union (str.to.re "4") (str.to.re "8"))))) ((_ re.capture 38) (re.++ (re.union (str.to.re "1") (re.union (str.to.re "3") (re.union (str.to.re "5") (re.union (str.to.re "7") (str.to.re "9"))))) (re.union (str.to.re "2") (str.to.re "6"))))))))))))))))))) (re.++ (re.union (str.to.re " ") (re.union (str.to.re "\u{0b}") (re.union (str.to.re "\u{0a}") (re.union (str.to.re "\u{0d}") (re.union (str.to.re "\u{09}") (str.to.re "\u{0c}")))))) (re.++ ((_ re.capture 39) (re.union ((_ re.capture 40) (re.++ (re.opt (re.union (str.to.re "0") (str.to.re "1"))) (re.range "0" "9"))) ((_ re.capture 41) (re.++ (str.to.re "2") (re.range "0" "3"))))) ((_ re.loop 0 2) ((_ re.capture 42) (re.++ (str.to.re ":") (re.++ (re.opt (re.range "0" "5")) (re.range "0" "9"))))))))) re.end-anchor)))	; match!==null
(assert (not (str.in.re ((_ str.extract 1) var0 (re.++ (re.++ re.begin-anchor (re.++ ((_ re.capture 1) (re.union (re.++ ((_ re.capture 2) (re.union (re.union (re.union ((_ re.capture 3) (re.++ ((_ re.capture 4) (re.union ((_ re.capture 5) (re.++ (re.opt (re.range "0" "1")) (re.range "0" "9"))) ((_ re.capture 6) (re.++ (str.to.re "2") (re.range "0" "8"))))) (re.++ (str.to.re "/") ((_ re.capture 7) (re.union ((_ re.capture 8) (re.++ (re.opt (str.to.re "0")) (re.range "0" "9"))) ((_ re.capture 9) (re.++ (str.to.re "1") (re.range "0" "2")))))))) ((_ re.capture 10) (re.++ (str.to.re "2") (re.++ (str.to.re "9") (re.++ (str.to.re "/") ((_ re.capture 11) (re.union ((_ re.capture 12) (re.++ (re.opt (str.to.re "0")) (re.union (str.to.re "1") (re.union (str.to.re ",") (re.range "3" "9"))))) ((_ re.capture 13) (re.++ (str.to.re "1") (re.range "0" "2")))))))))) ((_ re.capture 14) (re.++ (str.to.re "3") (re.++ (str.to.re "0") (re.++ (str.to.re "/") ((_ re.capture 15) (re.union ((_ re.capture 16) (re.++ (re.opt (str.to.re "0")) (re.union (str.to.re "1") (re.union (str.to.re ",") (re.range "3" "9"))))) ((_ re.capture 17) (re.++ (str.to.re "1") (re.range "0" "2")))))))))) ((_ re.capture 18) (re.++ (str.to.re "3") (re.++ (str.to.re "1") (re.++ (str.to.re "/") ((_ re.capture 19) (re.union ((_ re.capture 20) (re.++ (re.opt (str.to.re "0")) (re.union (str.to.re "1") (re.union (str.to.re "3") (re.union (str.to.re "5") (re.union (str.to.re "7") (str.to.re "8"))))))) ((_ re.capture 21) (re.++ (str.to.re "1") (re.range "0" "2"))))))))))) (re.++ (str.to.re "/") ((_ re.capture 22) (re.union ((_ re.capture 23) (re.++ (str.to.re "1") (re.++ (str.to.re "9") ((_ re.loop 0 2) (re.range "0" "9"))))) ((_ re.capture 24) (re.++ (re.range "2" "9") ((_ re.loop 0 3) (re.range "0" "9")))))))) ((_ re.capture 25) (re.++ (str.to.re "2") (re.++ (str.to.re "9") (re.++ (str.to.re "/") (re.++ (re.opt (str.to.re "0")) (re.++ (str.to.re "2") (re.++ (str.to.re "/") ((_ re.capture 26) (re.union ((_ re.capture 27) (re.++ ((_ re.capture 28) (re.union ((_ re.capture 29) (re.++ (re.union (str.to.re "2") (re.union (str.to.re "4") (re.union (str.to.re "6") (str.to.re "8")))) (re.union (str.to.re "0") (re.union (str.to.re "4") (str.to.re "8"))))) ((_ re.capture 30) (re.++ (re.union (str.to.re "3") (re.union (str.to.re "5") (re.union (str.to.re "7") (str.to.re "9")))) (re.union (str.to.re "2") (str.to.re "6")))))) (re.++ (str.to.re "0") (str.to.re "0")))) ((_ re.capture 31) (re.++ ((_ re.capture 32) (re.union ((_ re.capture 33) (re.++ (str.to.re "1") (str.to.re "9"))) ((_ re.capture 34) (re.++ (re.range "2" "9") (re.range "0" "9"))))) ((_ re.capture 35) (re.union (re.union ((_ re.capture 36) (re.++ (re.union (str.to.re "2") (re.union (str.to.re "4") (re.union (str.to.re "6") (str.to.re "8")))) (str.to.re "0"))) ((_ re.capture 37) (re.++ (re.union (str.to.re "0") (re.union (str.to.re "2") (re.union (str.to.re "4") (re.union (str.to.re "6") (str.to.re "8"))))) (re.union (str.to.re "4") (str.to.re "8"))))) ((_ re.capture 38) (re.++ (re.union (str.to.re "1") (re.union (str.to.re "3") (re.union (str.to.re "5") (re.union (str.to.re "7") (str.to.re "9"))))) (re.union (str.to.re "2") (str.to.re "6"))))))))))))))))))) (re.++ (re.union (str.to.re " ") (re.union (str.to.re "\u{0b}") (re.union (str.to.re "\u{0a}") (re.union (str.to.re "\u{0d}") (re.union (str.to.re "\u{09}") (str.to.re "\u{0c}")))))) (re.++ ((_ re.capture 39) (re.union ((_ re.capture 40) (re.++ (re.opt (re.union (str.to.re "0") (str.to.re "1"))) (re.range "0" "9"))) ((_ re.capture 41) (re.++ (str.to.re "2") (re.range "0" "3"))))) ((_ re.loop 0 2) ((_ re.capture 42) (re.++ (str.to.re ":") (re.++ (re.opt (re.range "0" "5")) (re.range "0" "9"))))))))) re.end-anchor)) (str.to.re "\x00"))))	
;match[1]!==null
(assert (not (str.in.re ((_ str.extract 1) var0 (re.++ (re.++ re.begin-anchor (re.++ ((_ re.capture 1) (re.union (re.++ ((_ re.capture 2) (re.union (re.union (re.union ((_ re.capture 3) (re.++ ((_ re.capture 4) (re.union ((_ re.capture 5) (re.++ (re.opt (re.range "0" "1")) (re.range "0" "9"))) ((_ re.capture 6) (re.++ (str.to.re "2") (re.range "0" "8"))))) (re.++ (str.to.re "/") ((_ re.capture 7) (re.union ((_ re.capture 8) (re.++ (re.opt (str.to.re "0")) (re.range "0" "9"))) ((_ re.capture 9) (re.++ (str.to.re "1") (re.range "0" "2")))))))) ((_ re.capture 10) (re.++ (str.to.re "2") (re.++ (str.to.re "9") (re.++ (str.to.re "/") ((_ re.capture 11) (re.union ((_ re.capture 12) (re.++ (re.opt (str.to.re "0")) (re.union (str.to.re "1") (re.union (str.to.re ",") (re.range "3" "9"))))) ((_ re.capture 13) (re.++ (str.to.re "1") (re.range "0" "2")))))))))) ((_ re.capture 14) (re.++ (str.to.re "3") (re.++ (str.to.re "0") (re.++ (str.to.re "/") ((_ re.capture 15) (re.union ((_ re.capture 16) (re.++ (re.opt (str.to.re "0")) (re.union (str.to.re "1") (re.union (str.to.re ",") (re.range "3" "9"))))) ((_ re.capture 17) (re.++ (str.to.re "1") (re.range "0" "2")))))))))) ((_ re.capture 18) (re.++ (str.to.re "3") (re.++ (str.to.re "1") (re.++ (str.to.re "/") ((_ re.capture 19) (re.union ((_ re.capture 20) (re.++ (re.opt (str.to.re "0")) (re.union (str.to.re "1") (re.union (str.to.re "3") (re.union (str.to.re "5") (re.union (str.to.re "7") (str.to.re "8"))))))) ((_ re.capture 21) (re.++ (str.to.re "1") (re.range "0" "2"))))))))))) (re.++ (str.to.re "/") ((_ re.capture 22) (re.union ((_ re.capture 23) (re.++ (str.to.re "1") (re.++ (str.to.re "9") ((_ re.loop 0 2) (re.range "0" "9"))))) ((_ re.capture 24) (re.++ (re.range "2" "9") ((_ re.loop 0 3) (re.range "0" "9")))))))) ((_ re.capture 25) (re.++ (str.to.re "2") (re.++ (str.to.re "9") (re.++ (str.to.re "/") (re.++ (re.opt (str.to.re "0")) (re.++ (str.to.re "2") (re.++ (str.to.re "/") ((_ re.capture 26) (re.union ((_ re.capture 27) (re.++ ((_ re.capture 28) (re.union ((_ re.capture 29) (re.++ (re.union (str.to.re "2") (re.union (str.to.re "4") (re.union (str.to.re "6") (str.to.re "8")))) (re.union (str.to.re "0") (re.union (str.to.re "4") (str.to.re "8"))))) ((_ re.capture 30) (re.++ (re.union (str.to.re "3") (re.union (str.to.re "5") (re.union (str.to.re "7") (str.to.re "9")))) (re.union (str.to.re "2") (str.to.re "6")))))) (re.++ (str.to.re "0") (str.to.re "0")))) ((_ re.capture 31) (re.++ ((_ re.capture 32) (re.union ((_ re.capture 33) (re.++ (str.to.re "1") (str.to.re "9"))) ((_ re.capture 34) (re.++ (re.range "2" "9") (re.range "0" "9"))))) ((_ re.capture 35) (re.union (re.union ((_ re.capture 36) (re.++ (re.union (str.to.re "2") (re.union (str.to.re "4") (re.union (str.to.re "6") (str.to.re "8")))) (str.to.re "0"))) ((_ re.capture 37) (re.++ (re.union (str.to.re "0") (re.union (str.to.re "2") (re.union (str.to.re "4") (re.union (str.to.re "6") (str.to.re "8"))))) (re.union (str.to.re "4") (str.to.re "8"))))) ((_ re.capture 38) (re.++ (re.union (str.to.re "1") (re.union (str.to.re "3") (re.union (str.to.re "5") (re.union (str.to.re "7") (str.to.re "9"))))) (re.union (str.to.re "2") (str.to.re "6"))))))))))))))))))) (re.++ (re.union (str.to.re " ") (re.union (str.to.re "\u{0b}") (re.union (str.to.re "\u{0a}") (re.union (str.to.re "\u{0d}") (re.union (str.to.re "\u{09}") (str.to.re "\u{0c}")))))) (re.++ ((_ re.capture 39) (re.union ((_ re.capture 40) (re.++ (re.opt (re.union (str.to.re "0") (str.to.re "1"))) (re.range "0" "9"))) ((_ re.capture 41) (re.++ (str.to.re "2") (re.range "0" "3"))))) ((_ re.loop 0 2) ((_ re.capture 42) (re.++ (str.to.re ":") (re.++ (re.opt (re.range "0" "5")) (re.range "0" "9"))))))))) re.end-anchor)) (re.++ re.all(re.+ (re.range "a" "z")) re.all) )))
;/[a-z]+/.test(match[1]) == false	
(check-sat)
(get-model)
(pop 1)
(push 1)
(assert (str.in.re var0 (re.* (re.range "\x01" "\xff"))))
(assert (str.in.re var0 (re.++ (re.++ re.begin-anchor (re.++ ((_ re.capture 1) (re.union (re.++ ((_ re.capture 2) (re.union (re.union (re.union ((_ re.capture 3) (re.++ ((_ re.capture 4) (re.union ((_ re.capture 5) (re.++ (re.opt (re.range "0" "1")) (re.range "0" "9"))) ((_ re.capture 6) (re.++ (str.to.re "2") (re.range "0" "8"))))) (re.++ (str.to.re "/") ((_ re.capture 7) (re.union ((_ re.capture 8) (re.++ (re.opt (str.to.re "0")) (re.range "0" "9"))) ((_ re.capture 9) (re.++ (str.to.re "1") (re.range "0" "2")))))))) ((_ re.capture 10) (re.++ (str.to.re "2") (re.++ (str.to.re "9") (re.++ (str.to.re "/") ((_ re.capture 11) (re.union ((_ re.capture 12) (re.++ (re.opt (str.to.re "0")) (re.union (str.to.re "1") (re.union (str.to.re ",") (re.range "3" "9"))))) ((_ re.capture 13) (re.++ (str.to.re "1") (re.range "0" "2")))))))))) ((_ re.capture 14) (re.++ (str.to.re "3") (re.++ (str.to.re "0") (re.++ (str.to.re "/") ((_ re.capture 15) (re.union ((_ re.capture 16) (re.++ (re.opt (str.to.re "0")) (re.union (str.to.re "1") (re.union (str.to.re ",") (re.range "3" "9"))))) ((_ re.capture 17) (re.++ (str.to.re "1") (re.range "0" "2")))))))))) ((_ re.capture 18) (re.++ (str.to.re "3") (re.++ (str.to.re "1") (re.++ (str.to.re "/") ((_ re.capture 19) (re.union ((_ re.capture 20) (re.++ (re.opt (str.to.re "0")) (re.union (str.to.re "1") (re.union (str.to.re "3") (re.union (str.to.re "5") (re.union (str.to.re "7") (str.to.re "8"))))))) ((_ re.capture 21) (re.++ (str.to.re "1") (re.range "0" "2"))))))))))) (re.++ (str.to.re "/") ((_ re.capture 22) (re.union ((_ re.capture 23) (re.++ (str.to.re "1") (re.++ (str.to.re "9") ((_ re.loop 0 2) (re.range "0" "9"))))) ((_ re.capture 24) (re.++ (re.range "2" "9") ((_ re.loop 0 3) (re.range "0" "9")))))))) ((_ re.capture 25) (re.++ (str.to.re "2") (re.++ (str.to.re "9") (re.++ (str.to.re "/") (re.++ (re.opt (str.to.re "0")) (re.++ (str.to.re "2") (re.++ (str.to.re "/") ((_ re.capture 26) (re.union ((_ re.capture 27) (re.++ ((_ re.capture 28) (re.union ((_ re.capture 29) (re.++ (re.union (str.to.re "2") (re.union (str.to.re "4") (re.union (str.to.re "6") (str.to.re "8")))) (re.union (str.to.re "0") (re.union (str.to.re "4") (str.to.re "8"))))) ((_ re.capture 30) (re.++ (re.union (str.to.re "3") (re.union (str.to.re "5") (re.union (str.to.re "7") (str.to.re "9")))) (re.union (str.to.re "2") (str.to.re "6")))))) (re.++ (str.to.re "0") (str.to.re "0")))) ((_ re.capture 31) (re.++ ((_ re.capture 32) (re.union ((_ re.capture 33) (re.++ (str.to.re "1") (str.to.re "9"))) ((_ re.capture 34) (re.++ (re.range "2" "9") (re.range "0" "9"))))) ((_ re.capture 35) (re.union (re.union ((_ re.capture 36) (re.++ (re.union (str.to.re "2") (re.union (str.to.re "4") (re.union (str.to.re "6") (str.to.re "8")))) (str.to.re "0"))) ((_ re.capture 37) (re.++ (re.union (str.to.re "0") (re.union (str.to.re "2") (re.union (str.to.re "4") (re.union (str.to.re "6") (str.to.re "8"))))) (re.union (str.to.re "4") (str.to.re "8"))))) ((_ re.capture 38) (re.++ (re.union (str.to.re "1") (re.union (str.to.re "3") (re.union (str.to.re "5") (re.union (str.to.re "7") (str.to.re "9"))))) (re.union (str.to.re "2") (str.to.re "6"))))))))))))))))))) (re.++ (re.union (str.to.re " ") (re.union (str.to.re "\u{0b}") (re.union (str.to.re "\u{0a}") (re.union (str.to.re "\u{0d}") (re.union (str.to.re "\u{09}") (str.to.re "\u{0c}")))))) (re.++ ((_ re.capture 39) (re.union ((_ re.capture 40) (re.++ (re.opt (re.union (str.to.re "0") (str.to.re "1"))) (re.range "0" "9"))) ((_ re.capture 41) (re.++ (str.to.re "2") (re.range "0" "3"))))) ((_ re.loop 0 2) ((_ re.capture 42) (re.++ (str.to.re ":") (re.++ (re.opt (re.range "0" "5")) (re.range "0" "9"))))))))) re.end-anchor)))	; match!==null
(assert (str.in.re ((_ str.extract 1) var0 (re.++ (re.++ re.begin-anchor (re.++ ((_ re.capture 1) (re.union (re.++ ((_ re.capture 2) (re.union (re.union (re.union ((_ re.capture 3) (re.++ ((_ re.capture 4) (re.union ((_ re.capture 5) (re.++ (re.opt (re.range "0" "1")) (re.range "0" "9"))) ((_ re.capture 6) (re.++ (str.to.re "2") (re.range "0" "8"))))) (re.++ (str.to.re "/") ((_ re.capture 7) (re.union ((_ re.capture 8) (re.++ (re.opt (str.to.re "0")) (re.range "0" "9"))) ((_ re.capture 9) (re.++ (str.to.re "1") (re.range "0" "2")))))))) ((_ re.capture 10) (re.++ (str.to.re "2") (re.++ (str.to.re "9") (re.++ (str.to.re "/") ((_ re.capture 11) (re.union ((_ re.capture 12) (re.++ (re.opt (str.to.re "0")) (re.union (str.to.re "1") (re.union (str.to.re ",") (re.range "3" "9"))))) ((_ re.capture 13) (re.++ (str.to.re "1") (re.range "0" "2")))))))))) ((_ re.capture 14) (re.++ (str.to.re "3") (re.++ (str.to.re "0") (re.++ (str.to.re "/") ((_ re.capture 15) (re.union ((_ re.capture 16) (re.++ (re.opt (str.to.re "0")) (re.union (str.to.re "1") (re.union (str.to.re ",") (re.range "3" "9"))))) ((_ re.capture 17) (re.++ (str.to.re "1") (re.range "0" "2")))))))))) ((_ re.capture 18) (re.++ (str.to.re "3") (re.++ (str.to.re "1") (re.++ (str.to.re "/") ((_ re.capture 19) (re.union ((_ re.capture 20) (re.++ (re.opt (str.to.re "0")) (re.union (str.to.re "1") (re.union (str.to.re "3") (re.union (str.to.re "5") (re.union (str.to.re "7") (str.to.re "8"))))))) ((_ re.capture 21) (re.++ (str.to.re "1") (re.range "0" "2"))))))))))) (re.++ (str.to.re "/") ((_ re.capture 22) (re.union ((_ re.capture 23) (re.++ (str.to.re "1") (re.++ (str.to.re "9") ((_ re.loop 0 2) (re.range "0" "9"))))) ((_ re.capture 24) (re.++ (re.range "2" "9") ((_ re.loop 0 3) (re.range "0" "9")))))))) ((_ re.capture 25) (re.++ (str.to.re "2") (re.++ (str.to.re "9") (re.++ (str.to.re "/") (re.++ (re.opt (str.to.re "0")) (re.++ (str.to.re "2") (re.++ (str.to.re "/") ((_ re.capture 26) (re.union ((_ re.capture 27) (re.++ ((_ re.capture 28) (re.union ((_ re.capture 29) (re.++ (re.union (str.to.re "2") (re.union (str.to.re "4") (re.union (str.to.re "6") (str.to.re "8")))) (re.union (str.to.re "0") (re.union (str.to.re "4") (str.to.re "8"))))) ((_ re.capture 30) (re.++ (re.union (str.to.re "3") (re.union (str.to.re "5") (re.union (str.to.re "7") (str.to.re "9")))) (re.union (str.to.re "2") (str.to.re "6")))))) (re.++ (str.to.re "0") (str.to.re "0")))) ((_ re.capture 31) (re.++ ((_ re.capture 32) (re.union ((_ re.capture 33) (re.++ (str.to.re "1") (str.to.re "9"))) ((_ re.capture 34) (re.++ (re.range "2" "9") (re.range "0" "9"))))) ((_ re.capture 35) (re.union (re.union ((_ re.capture 36) (re.++ (re.union (str.to.re "2") (re.union (str.to.re "4") (re.union (str.to.re "6") (str.to.re "8")))) (str.to.re "0"))) ((_ re.capture 37) (re.++ (re.union (str.to.re "0") (re.union (str.to.re "2") (re.union (str.to.re "4") (re.union (str.to.re "6") (str.to.re "8"))))) (re.union (str.to.re "4") (str.to.re "8"))))) ((_ re.capture 38) (re.++ (re.union (str.to.re "1") (re.union (str.to.re "3") (re.union (str.to.re "5") (re.union (str.to.re "7") (str.to.re "9"))))) (re.union (str.to.re "2") (str.to.re "6"))))))))))))))))))) (re.++ (re.union (str.to.re " ") (re.union (str.to.re "\u{0b}") (re.union (str.to.re "\u{0a}") (re.union (str.to.re "\u{0d}") (re.union (str.to.re "\u{09}") (str.to.re "\u{0c}")))))) (re.++ ((_ re.capture 39) (re.union ((_ re.capture 40) (re.++ (re.opt (re.union (str.to.re "0") (str.to.re "1"))) (re.range "0" "9"))) ((_ re.capture 41) (re.++ (str.to.re "2") (re.range "0" "3"))))) ((_ re.loop 0 2) ((_ re.capture 42) (re.++ (str.to.re ":") (re.++ (re.opt (re.range "0" "5")) (re.range "0" "9"))))))))) re.end-anchor)) (str.to.re "\x00")))
;match[1]==null
(check-sat)
(get-model)
(pop 1)
(push 1)
(assert (str.in.re var0 (re.* (re.range "\x01" "\xff"))))
(assert (not (str.in.re var0 (re.++ (re.++ re.begin-anchor (re.++ ((_ re.capture 1) (re.union (re.++ ((_ re.capture 2) (re.union (re.union (re.union ((_ re.capture 3) (re.++ ((_ re.capture 4) (re.union ((_ re.capture 5) (re.++ (re.opt (re.range "0" "1")) (re.range "0" "9"))) ((_ re.capture 6) (re.++ (str.to.re "2") (re.range "0" "8"))))) (re.++ (str.to.re "/") ((_ re.capture 7) (re.union ((_ re.capture 8) (re.++ (re.opt (str.to.re "0")) (re.range "0" "9"))) ((_ re.capture 9) (re.++ (str.to.re "1") (re.range "0" "2")))))))) ((_ re.capture 10) (re.++ (str.to.re "2") (re.++ (str.to.re "9") (re.++ (str.to.re "/") ((_ re.capture 11) (re.union ((_ re.capture 12) (re.++ (re.opt (str.to.re "0")) (re.union (str.to.re "1") (re.union (str.to.re ",") (re.range "3" "9"))))) ((_ re.capture 13) (re.++ (str.to.re "1") (re.range "0" "2")))))))))) ((_ re.capture 14) (re.++ (str.to.re "3") (re.++ (str.to.re "0") (re.++ (str.to.re "/") ((_ re.capture 15) (re.union ((_ re.capture 16) (re.++ (re.opt (str.to.re "0")) (re.union (str.to.re "1") (re.union (str.to.re ",") (re.range "3" "9"))))) ((_ re.capture 17) (re.++ (str.to.re "1") (re.range "0" "2")))))))))) ((_ re.capture 18) (re.++ (str.to.re "3") (re.++ (str.to.re "1") (re.++ (str.to.re "/") ((_ re.capture 19) (re.union ((_ re.capture 20) (re.++ (re.opt (str.to.re "0")) (re.union (str.to.re "1") (re.union (str.to.re "3") (re.union (str.to.re "5") (re.union (str.to.re "7") (str.to.re "8"))))))) ((_ re.capture 21) (re.++ (str.to.re "1") (re.range "0" "2"))))))))))) (re.++ (str.to.re "/") ((_ re.capture 22) (re.union ((_ re.capture 23) (re.++ (str.to.re "1") (re.++ (str.to.re "9") ((_ re.loop 0 2) (re.range "0" "9"))))) ((_ re.capture 24) (re.++ (re.range "2" "9") ((_ re.loop 0 3) (re.range "0" "9")))))))) ((_ re.capture 25) (re.++ (str.to.re "2") (re.++ (str.to.re "9") (re.++ (str.to.re "/") (re.++ (re.opt (str.to.re "0")) (re.++ (str.to.re "2") (re.++ (str.to.re "/") ((_ re.capture 26) (re.union ((_ re.capture 27) (re.++ ((_ re.capture 28) (re.union ((_ re.capture 29) (re.++ (re.union (str.to.re "2") (re.union (str.to.re "4") (re.union (str.to.re "6") (str.to.re "8")))) (re.union (str.to.re "0") (re.union (str.to.re "4") (str.to.re "8"))))) ((_ re.capture 30) (re.++ (re.union (str.to.re "3") (re.union (str.to.re "5") (re.union (str.to.re "7") (str.to.re "9")))) (re.union (str.to.re "2") (str.to.re "6")))))) (re.++ (str.to.re "0") (str.to.re "0")))) ((_ re.capture 31) (re.++ ((_ re.capture 32) (re.union ((_ re.capture 33) (re.++ (str.to.re "1") (str.to.re "9"))) ((_ re.capture 34) (re.++ (re.range "2" "9") (re.range "0" "9"))))) ((_ re.capture 35) (re.union (re.union ((_ re.capture 36) (re.++ (re.union (str.to.re "2") (re.union (str.to.re "4") (re.union (str.to.re "6") (str.to.re "8")))) (str.to.re "0"))) ((_ re.capture 37) (re.++ (re.union (str.to.re "0") (re.union (str.to.re "2") (re.union (str.to.re "4") (re.union (str.to.re "6") (str.to.re "8"))))) (re.union (str.to.re "4") (str.to.re "8"))))) ((_ re.capture 38) (re.++ (re.union (str.to.re "1") (re.union (str.to.re "3") (re.union (str.to.re "5") (re.union (str.to.re "7") (str.to.re "9"))))) (re.union (str.to.re "2") (str.to.re "6"))))))))))))))))))) (re.++ (re.union (str.to.re " ") (re.union (str.to.re "\u{0b}") (re.union (str.to.re "\u{0a}") (re.union (str.to.re "\u{0d}") (re.union (str.to.re "\u{09}") (str.to.re "\u{0c}")))))) (re.++ ((_ re.capture 39) (re.union ((_ re.capture 40) (re.++ (re.opt (re.union (str.to.re "0") (str.to.re "1"))) (re.range "0" "9"))) ((_ re.capture 41) (re.++ (str.to.re "2") (re.range "0" "3"))))) ((_ re.loop 0 2) ((_ re.capture 42) (re.++ (str.to.re ":") (re.++ (re.opt (re.range "0" "5")) (re.range "0" "9"))))))))) re.end-anchor))))	; match == null
(check-sat)
(get-model)
(pop 1)
(exit)
